20 1 6
259 508 734 363 254 782 616 668 526 97 672 467 418 47 925 319 163 572 469 857 
203 377 343 760 955 473 713 658 752 66 360 362 573 93 77 178 874 44 845 751 
492 517 217 909 915 141 227 77 65 47 933 619 776 628 731 730 100 443 387 204 
860 98 565 785 190 993 314 415 37 511 166 528 27 382 437 293 875 15 370 291 
414 654 909 189 281 639 918 381 433 656 584 645 106 500 429 295 493 742 710 529 
252 227 408 630 960 844 923 834 211 644 124 624 297 385 812 578 23 81 310 808 
880 2450 4520 1930 7440 2320 4880 5880 3250 5490 4680 5770 7750 8760 5580 7340 710 8320 9200 2810 
49980
